
 102   30
  10   10   10   10   10   10   10   10   10   10   10   10   10   10   10   10   10   10   10   10   10   10   10   10   10   10   10   10   10   10

   0   0   0   0   0   0   0   0   0   0   0   0   0   0   0   0   0   0   0   0   0   0   0   0   0   0   0   0   0   0   0  29 2 3 4 5 6 7 8 9 10 11 12 13 14 15 16 17 18 19 20 21 22 23 25 26 29 30 37 38 42 
   1   0   2   0   0   0   0   0   0   0   0   1   0   0   4   2   0   0   0   0   0   0   0   0   0   0   0   0   0   0   0  14 101 93 74 73 65 60 48 46 44 41 35 34 31 28 
   3   0   0   0   1   0   0   0   0   0   1   8   0   1   0   0   0   0   1   0   0   0   0   0   0   0   0   0   0   1   0  17 101 100 74 73 70 61 60 59 58 54 53 46 45 44 43 39 34 
   9   0   0   0   0   3   0   0   0   0   0   0   0   0   0   0   0   0   6   1   1   0   0   1   1   0   0   0   0   6   0  16 101 99 93 73 72 69 68 59 58 57 54 50 45 44 39 32 
   2   0   0   0   0   8   0   0   0   0   0   0   3   0   0   0   0   0   0   0   0   0   1   0   0   0   0   0   0   3   0   9 99 72 68 58 46 43 35 32 27 
  10   2   0   2   0   5   0   0   0   0   0   0   0   5   0   0   0   0   0   0   0   0   0   0   0   0   0   0   0   0   0  13 93 72 70 65 64 59 57 54 49 46 40 33 31 
   7   0   0   0   0   0   0   0   0   0   0   0   0   0   0   0   0   0   4   0   0   0   0   0   0   0   0   0   0   0   1  12 101 100 65 64 59 58 57 51 40 36 35 24 
   9   0   0   0   0   4   0   0   0   0   0   0   0   0   5   0   0   0   0   0   0   0   0   0   0   1   1   0   0   0   8  13 99 93 73 71 65 64 59 58 54 43 40 35 33 
   5   0   0   0   0   1   0   1   4   0   0   0   0   0   0   0   5   0   0   5   4   0   0   0   0   0   0   3   0   0   0  12 97 73 72 67 64 59 57 51 46 40 35 32 
   2   0   0   8   0   0   0   0   0   0   0   0   0   0   0   0   0   0   8   0   0   0   0   0   6   0   0   0   0   0   0  11 97 70 57 56 53 49 47 46 45 44 31 
   5   0   0   0   0   0   0   0   2   0   0   0   0   0   0   0   0   0   0   0   0   0   0   7   0   0   0   0   5   0   0  11 101 94 93 71 69 59 58 57 45 34 32 
   9   0   0   0   0   0   0   0   0   0   0   0   0   0   6   0   0   0   0   0   0   0   0   0   0   6   0   0   0   0   0  19 100 99 98 97 96 89 74 73 72 70 69 68 65 60 59 58 55 49 44 
   8   0   0   0   0   0   0   7   3   0   0   0   0   0   2   0   0   0   2   0   0   0   0   0   3   0   0   7   0   0   0  10 93 92 91 73 70 57 55 53 45 34 
   4   0   0   0   5   0   0   0   0   1   0   0   0   0   0   0   0   0   0   0   8   0   0   0   7   0   0   0   0   0   0  20 100 99 98 97 95 94 92 91 90 88 71 70 68 67 65 64 62 57 55 45 
   7   0   5   0   0   0   0   8   0   0   0   0   0   0   0   0   0   0   0   0   0   0   0   7   0   0   0   0   0   0   0  13 99 92 90 88 74 72 68 65 64 60 48 46 45 
   5   0   0   6   0   0   0   0   0   0   0   0   0   0   0   0   0   0   0   4   0   0   6   0   0   0   0   9   3   0   6  18 99 98 97 96 94 92 89 86 72 70 69 68 64 63 58 57 55 49 
   2   0   0   0   0  10   0   0   0   0   0   0   0   0   0   0   0   0   0   4   4   3   0   0   0   5   0   0   0   0   0  16 99 97 96 95 92 72 69 68 67 66 64 61 55 54 49 45 
   6   0   0   0   0   0   0   0   0  10   0   0   0   0   0   9   0   0   0   0   0   0  10   0   0   5   0   0   0   0   0  14 101 100 99 97 96 95 93 73 67 65 59 49 45 44 
   8   0   0   0   0   0   0   0   0   0   4   0   0   0   0   0   0   0   0   0   0   0   0   8   9   0   0   0   5   0   5  18 100 99 98 96 95 92 91 90 89 88 73 71 69 67 64 55 52 48 
   2   0   0   0   0   0   0   0   0   0   0   0   4   0   0   0   2   0   0   5   7   0   0   0   0   0   0   0   0   0   0  13 97 96 95 93 92 91 73 68 64 61 49 48 45 
   1   0   0   0   0   5   0   0   0   0   0   0   0   0   0   0   0   0   0   0   0   0   0   0   0   0   0   0   0   0   0  11 99 97 93 88 79 70 69 67 57 45 39 
   8   4   0   0   0   0   1   0   0   0   0   0   0   0   5   0   0   0   0   0   0   0   0   0   0   0   0   8   5   7   0  15 99 97 95 93 92 91 90 88 68 67 60 59 57 55 45 
   7   0   0   0   0   0   9   0   7   0   0   0   0   0   0   3   0   0   0   0   0   4   0   0   0   0   0   0   0   0   0  14 101 99 98 95 94 91 89 87 85 82 68 57 49 48 
   4   0   0   0   0   0   0   0   0   0   0   0   0   0   0   6   3   0   0   7   0   0   0   5   0   4   0   0   6   0   0  11 97 95 94 92 86 85 67 66 63 49 46 
   4   0   0   0   3   0   0   0   0   0   0   0   0   0   0   0   0   0   0   0   0   0   0   0   0   0   0   0   0   0   0   9 99 98 97 96 95 93 82 68 35 
   9   0   0   0   0   0   0   0   3   0   0   0   0   0   8   4   7   0   0   0   0   3   0   0   0   0   0   0   0   0   0  13 100 97 95 92 91 90 88 74 68 65 57 55 45 
   7   5   0   0   0   0   0   0   9   0   0   0   0   0   0  10   0   0   0   0   0   0   0   0   9   0   0   0   0   0   0  16 101 97 96 94 90 89 88 85 84 83 73 70 64 63 55 54 
   5  10   0   0   0   0   0   0   0   7   0   4  10   0   0   0   0   0   0   9   0   0   0   0   0   8   0   0   0   0   0  15 97 90 89 88 86 85 72 70 68 66 64 63 61 55 54 
   6   0   6   0   0   0   0   0   0   0   0   6   0   7   0   0   7   0   0   5   0   0   0   0   0   0   0   0   0   9   0  13 98 95 92 91 89 86 82 72 70 69 66 60 49 
   9   0   0   4   0   0   0   0   0   0   0   0   0   0   7   4   0   0   0   0   0   0   0   0   9   0   0   0   0   0   0   8 101 96 93 67 65 55 49 45 
   5   0   0   0   3   0   0   0   0   0   0   0   8   0   0   0   0   0   0   0   0   0   0   0   0   0   0   0   0   9   0  15 100 99 96 89 86 85 84 83 79 77 75 71 69 58 55 
   4   6   0   0   0   0   0   7   0   0   0   0   0   0   0   0   9   0   0   0   0   0   6  10   0   8   0   0   0   0   0  12 100 95 92 91 89 86 85 70 66 65 55 49 
   5   0   0   0   0   0   0   0   0   0   0   0   0   0   0   0   0   0   0   0   0   0   0   0   9   0   0   2   0   0   0  11 98 97 96 94 92 86 84 83 63 55 53 
   8   0   0   0  10   4   0   0   0   0   0   0   0   0   0   0   0   0   0   0   8   0   0   0   4   0   0   0   0   0   5  13 99 98 97 96 95 87 85 76 72 68 66 63 49 
   1   0   0   0   0   0   3   0   0   0   0   0   0   0   0   6   4   0   7   0   0   0   0   0   0   6   0   0   9   0   0   7 92 90 88 79 66 55 45 
   2   0   0   0   0   7   0   0   0   0   0   0   0   0   0   0   0   0   0   0   0   0   0   0   0   0   0   0   0   0   0   7 95 92 90 88 84 82 45 
   1  10   0   0   0   0   0   0   0   9   0   0   0   0   0   0   0   0   0   0   0   0   6   0   0   0   0   0   0   0   0  13 100 96 92 91 89 88 86 85 79 67 66 63 61 
   3   0   0   0   0   0   0   0   0   0   0   0   5   0   0   0   4   0   0   0   0   0   0   0   0   0   0   0   0   0   0  12 98 89 88 86 85 83 82 81 79 66 63 55 
   8   0   0  10   8   0   0   0   0   0   0   0   0   0  10   0   0   0   0   7   0   0   0   0   0   0   5   0   0   0   0  11 98 96 95 92 90 86 85 83 64 63 55 
   2   5   5   0   0   0   8   0   0   0   8   0   0   0   0   7   0   0   0   0   0   0   0   0   0   0   6   0   0   0   0  14 98 95 92 90 88 85 83 81 80 78 76 68 66 63 
   5   3   0   4   0   0   0   0   0   0   0   0   0   0   0   0   0   0   5   0   0   0   0   0   0   0   0   0   6   0   0   9 94 89 86 81 80 76 75 59 58 
   2   0   0   0   0   0   0   0   0   0   0   0   7   0   0   0   0   0   0   0   0   0   0   7   0   0   7   0   4   0   0  14 99 96 95 92 87 85 84 83 82 80 79 76 75 71 
   1   0   0   0   0   7   0   0   0   0   0   0   0   0   0   0   0   0  10   0   0   0   0   0   0   0   7   9   0   0   0  10 97 90 88 87 86 85 81 79 78 57 
  10   0  10   0   0   0   0   0   0   0   0   0   0   0   0   0   0   0   7   0   0   0   0   0   0   0   6   0   0   0   0  10 92 91 86 85 83 80 76 66 64 63 
   1   0   0   0  10   0   0   0   0   0   0   0   0   0   0   0   6   0   0   0   0   0   0   0   0   0   0   5   0   0   0  10 89 87 86 85 83 81 80 78 76 63 
   1   0   4   0   0   0   0   0   0   0   0   0   0   0   0   0   0   0   0   7   0   0   0   0   0   0   0   0   0   0   0  10 96 91 89 87 80 79 77 76 71 69 
   1   0   0   6   0   7   0   0   0   0   0   0   0   0   0   0   0   0   0   0   0   0   0   4   0   0   5   0   0   0   0  10 94 93 89 83 82 80 77 75 73 68 
   8   0   0   0   0   0   0   0   0   0   0   0   7   0   0   0   6   0   0   0   0   0   0   2   5   0   0   0   0   0   0   6 86 77 76 70 66 59 
   4   0   0   0   0   5   0   0   0   0   0   0   6   0   0   4   0   0   0   0   0   0   0   0   0   0   0   0   0   0   0  10 90 88 84 83 81 80 79 78 77 75 
   9   0   0   0   0   0   0   0   0   0   0   0   0   0   0   0   0   0   0   0   0   0   0   7   7   7   8   8   0   6   0  10 97 95 94 89 85 84 82 81 79 76 
   5   0   0   0   0   0   0   0   0   0  10   0   0   6   0   0   0   0   9   0   8   0   0   0   0   9   0   0   0   0   0   9 93 92 91 87 86 83 79 77 75 
   1   0   0   0   0   0   0   0   0   0   0   0   0   0   0   0   0   0   0   0   0   0   0   0   0   0   0   0   0   0   0   8 87 85 82 80 78 77 76 75 
   3   0   0   0   0   0   0   0   0   0   0   0   0   0   0   0   0   0   0   0   0   0   0   0   0   0   0   0   0   0   0   6 88 85 79 77 69 67 
   4   0   0   5   0   0   0   0   0   5   0   0   0   0   7   8   0   0   0   0   0   0   0   0   0   0   0   0   0   0   0   6 98 91 82 79 77 75 
   2   0   0   5   0   0   0   0   0   0   5   0   7   0   0   0   0   1   0   8   0   5   0   0   0   0   7   0   0   0   0   4 87 80 78 76 
  10   0   0   0   0   0   0   0   0   0   0   0   0   0   0   0   0   0   0   0   0   0   0   0   0   0   0   4   0   0   0   4 91 84 82 78 
   9   0   0   0   0   5   0   0   0   0   0   0   0   0   0   0   0   5   0   0   0   0   0   6   0   0   0   0   0   0   7   3 84 77 66 
   3   0   0   0   0   0   0   0   0   0   0   0   0   0   0   0   0   8   0   7   0   0   0   0   0   0   0   0   0   0   0   3 95 91 67 
   1   0   0   4   0   0   0   0   0   0   0   0   0   0   0   0   8   7   5   0   0   8   0   0   0   0   0   0   0   0   7   3 83 79 78 
   9   0   0   0   0   6   0   0   5   0   0   0   0   0   0   0   0   0   6   0   0   0   0   7   0   0   0   0   8   0   9   3 94 76 75 
  10   0   0   0   0   0   0   0   0   0   0   0   0   0   0   0   0   9   0   3   0   0   0   7   0   0   0   0   0   0   0   3 78 76 75 
  10   0   0   0   0   0   0   6   0   0   0   0   7   0   0   0   0   0   0   0   0   0   0   3   0   0   9   0   0   0   0   3 84 79 76 
  10   0   0   6   0   0   0   0   0   3   0   0   0   0   0   0   0   0   0   0   0   0   6   0   0   0   0   0   0   0   0   2 77 75 
   3   0   5   0   0   0   0   0   0   0   0   0   0   0   0   0   0   0   0   0   0   0   0   0   0   0   0   0   0   0   0   2 82 77 
   5   0   0   0   0   0   0   0  10   0   0   0   0   0   0   0   0   0   0   5   0   0   2   0   4   0   0   0   0   0   7   2 84 79 
   4   0   8   0   0   0   0   0   0   0   0   0   0   0   0   0   0   4   0   0   0   0   8   0   0   0   0   0   0   0   0   1 75 
   6   0   0   0   0   0   0   0   0   0   0   0   0   0   5   0   0   4   0   5   0   0   0   0   0   6   0   0   0   0   0   1 82 
   8   0   0   0   0   0   0   0   0   7   0   0   0   0   0   0  10   6   0   0   0   0   0   0   0   0   0   0   0   0   0   1 84 
   3   0   6   8   0  10   0   4   0   0   0   0   3   0  10   0   9   0   0   0   0  10   0   0   0   0   0   0   0   0   0   1 81 
   4   0   0   0   0   0   0   0   0   0   0   8   0   6   0   0   0   0   0   8   0   0   0   6   0   5   0   0   0   0   0   1 81 
  10   0   0   0   0   0   0   7   0   6   0   0   0   9   0   0   0   0   0   0   0   4   0   0   0   0   0   0   0   0   0   1 78 
   7   0   0   0   0   0   7   0   0   0   0   0   0   0   0   0   0   0   0   0   0   8   0   0   0   6   0   0   0   0   0   1 84 
   5   0   0   0   0   0   6   0   0   0   0   0   0   6   0   0   0   0   0   0   8   0   9   0   0   0   0   0   0   0   0   1 76 
   8   0   0   0   0   0   6   0   0   0   0   8   0   0   0   7   0   0   7   0   0   0   0   0   0   0   0  10   0   0   0   1 86 
   4   0   7   0   0   0   0   0   6   0   0   0   0   0   0   0   0   0   0  10   0   0   0   5   0   8   0   0   0   0   0   1 102
   2   0   6   0   7   0   0   0   0   7  10   8   0   0   5   0   3   0   0   0   0   0   0   0   0   0   0   0   0   0   0   1 102
   4   3   0   0   0   0   7   0   0   0   0   0   0   0   0   0   0   0   0   0   0   0   0   0   0   0   0   0   0   0   0   1 102
   9   0   0   0   7   0   0   0   0   3   4   0   0   0   0   0   0   0   0   6   0   0   0   0   0   0   0   0   5   0   0   1 102
   8   0   0   0   0  10   0   0   0   0   0   0   0   0   0   0   0   0   0   9   0   0   0   7   5   0   0   0  10   0   0   1 102
   2   9   0   0   0   0   5   0   0   0   4   0   0   0   0   0   0   0   0   0   0   0   0   0   0   0   0   0   0   4   0   1 102
   1   0   0   0   0   0   0   0   0   0   0   0   0   0   4   0   0   0   0   0   0  10   0   0   0   0   0   0   0   0   0   1 102
   6   0   0   0   0   5   6   0   0   0   0   0   0   0   0   0   0   7   0   0   0   0   0   0   0   0   0   0   0   0   0   1 102
   8   0   0  10   0   6   0   0   0   0   7   5   0   0   0   0   0   0   0   0   0   0   0   0   0   0   0   0   0   0   7   1 102
   6   6   0   0   0   0   0   0   7   0   0   0   0   0   0   0   0   0   0   0   0   0   0   0   0   0   0   0   0   0   0   1 102
   3   9  10   0   0   0   0   0   0   0   4   0   0   0   0   0   0  10   0   0   5   0   0   0   0   0   0   0   0   0   0   1 102
   8   0   0   0   0   0   0   5   0   0   0   0   0   0   0   0   0   0   0   0   0   0   0   0   0   0   0   0   0   0   0   1 102
   4   0   0   0   0   0   0   0   7   0   0   0   0   7   0   0   0   0   0   0   5   0   0   0   0   0   0   4   0   0   0   1 102
   4   0   0   0   0   0   0   0   0   0  10   0   0   0   0   0   0   0   0   0   0   0   0   0   0   0   5   0   0   0   5   1 102
   6   0   4   0   0   0   0   0   0   0   0   0   4   0   0   0   0   0   0   3   0   0   0   6   0   0   0   0   0   0   5   1 102
   1   0   0   0   0   0   0   0   9   0   0   0   0   0   0   0   9   0   0   0   6   0   0   0   0   0   6   0   0   0   0   1 102
   8   0   0   0   0   0   0  10   0   7   0   0   0  10   0   0   0   4   0   0   0   0   0   0   0   6   0   0   0   0   0   1 102
   7   0   0   0   0   0   0   0   0   7   0   0   0   0   0   0   5   0   0   8   9   5   0   5   0   0   0   0   0   0   0   1 102
   2   0   0   0   6   0   0   0   0   0   5   0   0   0   0   0   0   0   7   0   0   0   0   0   0   0   0   3   0   0   0   1 102
   3   0   0   0   9   0   0   0   0   0   0   0   0   0   0   0   5   7   0   0   0   0   0   0   0   0   0   0   0   0   0   1 102
  10   0   6   0   0   0   0   0   0   0   0   0   0   0   0   0   0   0   0   0   0   0   0   0   0   0   0   0   0   0   0   1 102
  10   0   0   0   0   0   7   0   0   0   0   0   9   0   8   0   0   0   0   0   0   0   0   0   0   0   0   0   0   0   0   1 102
   5   6   0   0   0   0   0   0   0   0   0   0   0   5   4   8   0   0   0   0   0   0   0   0   0   0   0   0   0   9   0   1 102
   8   0   0   0   0   0   7   5   0   0   0   0   0   0   0   0   0   0   0   0   0   0   0  10   0   0   0   0   0   0   0   1 102
   2   0   0   0   0   0   0   0   0   0   0   0   0   0   0   0   0   0   0   0   0   0   0   0   0   0   0   0   0   0   0   1 102
   3   0   0   0   3   0   0   0   0   0   0   0   4   6   0   0   0   0   0   0   5   0   0   0   0   0   0   0   0   0   0   1 102
   5   0   0   0   0   0   0   0   0   0   0   0   0   4   0   0   0   0   0   0   0   0   0   0   0   0   0   0   0   0   0   1 102
   0   0   0   0   0   0   0   0   0   0   0   0   0   0   0   0   0   0   0   0   0   0   0   0   0   0   0   0   0   0   0   0 
